% (sonet_problem1nu.param)
r = 4;
n = 5;

demand =
array2d(1..n, 1..n,
        [0,1,0,1,0,
         1,0,1,0,0,
         0,1,0,0,1,
         1,0,0,0,0,
         0,0,1,0,0])
;

capacity_nodes = [3,2,2,1];